db/data/18106258982025522882318351332613213812.z3.out
-------------------
2500.140258070
